clingo version 5.3.0
Reading from x5_y5_n25_r3_s1_ps1_pr3_u3_o0_N001.lp ...
Solving...
Answer: 1
assign(shelf(1),station(3)). assign(shelf(1),station(5)). assign(shelf(2),station(2)). assign(shelf(2),station(4)). assign(shelf(3),station(1)).
Answer: 2
assign(shelf(1),station(5)). assign(shelf(2),station(2)). assign(shelf(2),station(3)). assign(shelf(2),station(4)). assign(shelf(3),station(1)).
Answer: 3
assign(shelf(1),station(3)). assign(shelf(1),station(5)). assign(shelf(2),station(2)). assign(shelf(2),station(3)). assign(shelf(2),station(4)). assign(shelf(3),station(1)).
Answer: 4
assign(shelf(2),station(2)). assign(shelf(2),station(3)). assign(shelf(2),station(4)). assign(shelf(2),station(5)). assign(shelf(3),station(1)).
Answer: 5
assign(shelf(1),station(5)). assign(shelf(2),station(2)). assign(shelf(2),station(3)). assign(shelf(2),station(4)). assign(shelf(2),station(5)). assign(shelf(3),station(1)).
Answer: 6
assign(shelf(1),station(3)). assign(shelf(2),station(2)). assign(shelf(2),station(4)). assign(shelf(2),station(5)). assign(shelf(3),station(1)).
Answer: 7
assign(shelf(1),station(3)). assign(shelf(2),station(2)). assign(shelf(2),station(3)). assign(shelf(2),station(4)). assign(shelf(2),station(5)). assign(shelf(3),station(1)).
Answer: 8
assign(shelf(1),station(3)). assign(shelf(1),station(5)). assign(shelf(2),station(2)). assign(shelf(2),station(4)). assign(shelf(2),station(5)). assign(shelf(3),station(1)).
Answer: 9
assign(shelf(1),station(3)). assign(shelf(1),station(5)). assign(shelf(2),station(2)). assign(shelf(2),station(3)). assign(shelf(2),station(4)). assign(shelf(2),station(5)). assign(shelf(3),station(1)).
Answer: 10
assign(shelf(1),station(2)). assign(shelf(1),station(3)). assign(shelf(2),station(4)). assign(shelf(2),station(5)). assign(shelf(3),station(1)).
Answer: 11
assign(shelf(1),station(2)). assign(shelf(1),station(3)). assign(shelf(1),station(5)). assign(shelf(2),station(4)). assign(shelf(3),station(1)).
Answer: 12
assign(shelf(1),station(2)). assign(shelf(1),station(3)). assign(shelf(1),station(5)). assign(shelf(2),station(4)). assign(shelf(2),station(5)). assign(shelf(3),station(1)).
Answer: 13
assign(shelf(1),station(2)). assign(shelf(1),station(3)). assign(shelf(1),station(5)). assign(shelf(2),station(2)). assign(shelf(2),station(4)). assign(shelf(3),station(1)).
Answer: 14
assign(shelf(1),station(2)). assign(shelf(1),station(3)). assign(shelf(2),station(2)). assign(shelf(2),station(4)). assign(shelf(2),station(5)). assign(shelf(3),station(1)).
Answer: 15
assign(shelf(1),station(2)). assign(shelf(1),station(3)). assign(shelf(1),station(5)). assign(shelf(2),station(2)). assign(shelf(2),station(4)). assign(shelf(2),station(5)). assign(shelf(3),station(1)).
Answer: 16
assign(shelf(1),station(2)). assign(shelf(2),station(3)). assign(shelf(2),station(4)). assign(shelf(2),station(5)). assign(shelf(3),station(1)).
Answer: 17
assign(shelf(1),station(2)). assign(shelf(2),station(2)). assign(shelf(2),station(3)). assign(shelf(2),station(4)). assign(shelf(2),station(5)). assign(shelf(3),station(1)).
Answer: 18
assign(shelf(1),station(2)). assign(shelf(1),station(3)). assign(shelf(2),station(3)). assign(shelf(2),station(4)). assign(shelf(2),station(5)). assign(shelf(3),station(1)).
Answer: 19
assign(shelf(1),station(2)). assign(shelf(1),station(3)). assign(shelf(2),station(2)). assign(shelf(2),station(3)). assign(shelf(2),station(4)). assign(shelf(2),station(5)). assign(shelf(3),station(1)).
Answer: 20
assign(shelf(1),station(2)). assign(shelf(1),station(5)). assign(shelf(2),station(3)). assign(shelf(2),station(4)). assign(shelf(3),station(1)).
Answer: 21
assign(shelf(1),station(2)). assign(shelf(1),station(3)). assign(shelf(1),station(5)). assign(shelf(2),station(3)). assign(shelf(2),station(4)). assign(shelf(3),station(1)).
Answer: 22
assign(shelf(1),station(2)). assign(shelf(1),station(5)). assign(shelf(2),station(3)). assign(shelf(2),station(4)). assign(shelf(2),station(5)). assign(shelf(3),station(1)).
Answer: 23
assign(shelf(1),station(2)). assign(shelf(1),station(3)). assign(shelf(1),station(5)). assign(shelf(2),station(3)). assign(shelf(2),station(4)). assign(shelf(2),station(5)). assign(shelf(3),station(1)).
Answer: 24
assign(shelf(1),station(2)). assign(shelf(1),station(5)). assign(shelf(2),station(2)). assign(shelf(2),station(3)). assign(shelf(2),station(4)). assign(shelf(3),station(1)).
Answer: 25
assign(shelf(1),station(2)). assign(shelf(1),station(5)). assign(shelf(2),station(2)). assign(shelf(2),station(3)). assign(shelf(2),station(4)). assign(shelf(2),station(5)). assign(shelf(3),station(1)).
Answer: 26
assign(shelf(1),station(2)). assign(shelf(1),station(3)). assign(shelf(1),station(5)). assign(shelf(2),station(2)). assign(shelf(2),station(3)). assign(shelf(2),station(4)). assign(shelf(3),station(1)).
Answer: 27
assign(shelf(1),station(2)). assign(shelf(1),station(3)). assign(shelf(1),station(5)). assign(shelf(2),station(2)). assign(shelf(2),station(3)). assign(shelf(2),station(4)). assign(shelf(2),station(5)). assign(shelf(3),station(1)).
SATISFIABLE

Models       : 27
Calls        : 1
Time         : 0.008s (Solving: 0.00s 1st Model: 0.00s Unsat: 0.00s)
CPU Time     : 0.004s
